
Starting CP-SAT solver v9.15.6755
Parameters: random_seed: 2026072422 max_time_in_seconds: 2500 log_search_progress: true cp_model_presolve: true linearization_level: 2 num_search_workers: 4 cp_model_probing_level: 2 symmetry_level: 2

Initial satisfaction model '': (model_fingerprint: 0xc8bead5883a64de9)
#Variables: 724 (598 primary variables)
  - 724 Booleans in [0,1]
#kBoolAnd: 110 (#enforced: 110) (#literals: 330)
#kBoolOr: 110 (#enforced: 110) (#literals: 220)
#kExactlyOne: 87 (#literals: 261)
#kLinear1: 42 (#enforced: 6)
#kLinear2: 336 (#enforced: 336) (#complex_domain: 110)
#kLinear3: 1'600 (#enforced: 6)
#kLinearN: 1'132 (#enforced: 243) (#terms: 9'111)

Starting presolve at 0.00s
  5.69e-04s  0.00e+00d  [DetectDominanceRelations] 
  6.91e-03s  0.00e+00d  [PresolveToFixPoint] #num_loops=3 #num_dual_strengthening=1 
  3.19e-05s  0.00e+00d  [ExtractEncodingFromLinear] #potential_supersets=75 
  2.49e-04s  0.00e+00d  [DetectDuplicateColumns] 
  8.40e-05s  0.00e+00d  [DetectDuplicateConstraints] #duplicates=15 
[Symmetry] Graph for symmetry has 4'813 nodes and 15'261 arcs.
[Symmetry] Symmetry computation done. time: 0.00102302 dtime: 0.00174281
[SAT presolve] num removable Booleans: 220 / 604
[SAT presolve] num trivial clauses: 0
[SAT presolve] [0s] clauses:2'672 literals:7'308 vars:498 one_side_vars:57 simple_definition:1 singleton_clauses:0
[SAT presolve] [0.000178528s] clauses:2'648 literals:7'235 vars:498 one_side_vars:58 simple_definition:2 singleton_clauses:1
[SAT presolve] [0.000549394s] clauses:2'170 literals:6'480 vars:367 one_side_vars:68 simple_definition:59 singleton_clauses:1
  1.14e-04s  0.00e+00d  [DetectDuplicateConstraintsWithDifferentEnforcements] 
  4.04e-03s  1.91e-03d  [Probe] #probed=1'249 #fixed_bools=14 #equiv=6 #new_binary_clauses=442 
  3.54e-04s  2.10e-04d  [MaxClique] Merged 516 constraints with 1'153 literals into 463 constraints with 1'058 literals
  7.37e-04s  0.00e+00d  [DetectDominanceRelations] 
  2.56e-03s  0.00e+00d  [PresolveToFixPoint] #num_loops=1 #num_dual_strengthening=1 
  8.80e-04s  0.00e+00d  [ProcessAtMostOneAndLinear] 
  8.45e-05s  0.00e+00d  [DetectDuplicateConstraints] #duplicates=8 
  6.42e-05s  0.00e+00d  [DetectDuplicateConstraintsWithDifferentEnforcements] 
  6.49e-04s  5.55e-05d  [DetectDominatedLinearConstraints] #relevant_constraints=806 #num_inclusions=294 #num_redundant=9 
  9.04e-05s  0.00e+00d  [DetectDifferentVariables] 
  6.03e-04s  8.32e-05d  [ProcessSetPPC] #relevant_constraints=2'936 #num_inclusions=103 
  2.16e-04s  3.31e-05d  [TransformClausesToExactlyOne] #num_amos=459 #num_clauses=1'678 #num_checked=1'678 
  3.91e-05s  0.00e+00d  [DetectEncodedComplexDomains] 
  2.70e-05s  1.90e-07d  [FindAlmostIdenticalLinearConstraints] #num_tested_pairs=2 
  7.27e-04s  1.33e-03d  [FindBigAtMostOneAndLinearOverlap] 
  1.14e-03s  1.16e-03d  [FindBigVerticalLinearOverlap] #blocks=3 #saved_nz=98 
  2.91e-04s  6.46e-04d  [FindBigHorizontalLinearOverlap] #linears=436 
  2.89e-04s  2.74e-05d  [MergeClauses] #num_collisions=30 #num_merges=30 #num_saved_literals=150 
  7.16e-04s  0.00e+00d  [DetectDominanceRelations] 
  2.46e-03s  0.00e+00d  [PresolveToFixPoint] #num_loops=2 #num_dual_strengthening=1 
  6.73e-04s  0.00e+00d  [DetectDominanceRelations] 
  2.29e-03s  0.00e+00d  [PresolveToFixPoint] #num_loops=1 #num_dual_strengthening=1 
  1.99e-04s  0.00e+00d  [DetectDuplicateColumns] 
  7.01e-05s  0.00e+00d  [DetectDuplicateConstraints] 
[Symmetry] Graph for symmetry has 4'190 nodes and 12'988 arcs.
[Symmetry] Symmetry computation done. time: 0.000723265 dtime: 0.00119407
[SAT presolve] num removable Booleans: 89 / 453
[SAT presolve] num trivial clauses: 0
[SAT presolve] [0s] clauses:2'108 literals:6'343 vars:431 one_side_vars:137 simple_definition:64 singleton_clauses:0
[SAT presolve] [0.000177727s] clauses:2'108 literals:6'145 vars:431 one_side_vars:181 simple_definition:56 singleton_clauses:0
[SAT presolve] [0.000242915s] clauses:2'100 literals:6'137 vars:427 one_side_vars:183 simple_definition:46 singleton_clauses:0
  1.44e-04s  0.00e+00d  [DetectDuplicateConstraintsWithDifferentEnforcements] 
  4.29e-03s  1.72e-03d  [Probe] #probed=1'236 #new_binary_clauses=267 
  2.92e-04s  2.05e-04d  [MaxClique] Merged 455 constraints with 985 literals into 452 constraints with 985 literals
  6.88e-04s  0.00e+00d  [DetectDominanceRelations] 
  2.37e-03s  0.00e+00d  [PresolveToFixPoint] #num_loops=1 #num_dual_strengthening=1 
  8.13e-04s  0.00e+00d  [ProcessAtMostOneAndLinear] 
  1.14e-04s  0.00e+00d  [DetectDuplicateConstraints] 
  8.02e-05s  0.00e+00d  [DetectDuplicateConstraintsWithDifferentEnforcements] 
  2.68e-03s  8.80e-05d  [DetectDominatedLinearConstraints] #relevant_constraints=795 #num_inclusions=433 #num_redundant=1 
  1.14e-04s  0.00e+00d  [DetectDifferentVariables] 
  6.21e-04s  7.49e-05d  [ProcessSetPPC] #relevant_constraints=2'965 #num_inclusions=108 
  2.36e-04s  3.25e-05d  [TransformClausesToExactlyOne] #num_amos=453 #num_clauses=1'672 #num_checked=1'672 
  5.28e-05s  0.00e+00d  [DetectEncodedComplexDomains] 
  3.05e-05s  0.00e+00d  [FindAlmostIdenticalLinearConstraints] 
  6.94e-04s  1.15e-03d  [FindBigAtMostOneAndLinearOverlap] 
  1.10e-03s  1.04e-03d  [FindBigVerticalLinearOverlap] #blocks=2 #saved_nz=198 
  2.62e-04s  5.43e-04d  [FindBigHorizontalLinearOverlap] #linears=438 
  2.91e-04s  2.64e-05d  [MergeClauses] #num_collisions=81 #num_merges=81 #num_saved_literals=244 
  7.03e-04s  0.00e+00d  [DetectDominanceRelations] 
  2.39e-03s  0.00e+00d  [PresolveToFixPoint] #num_loops=2 #num_dual_strengthening=1 
  6.74e-04s  0.00e+00d  [DetectDominanceRelations] 
  2.30e-03s  0.00e+00d  [PresolveToFixPoint] #num_loops=1 #num_dual_strengthening=1 
  1.85e-04s  0.00e+00d  [DetectDuplicateColumns] 
  8.71e-05s  0.00e+00d  [DetectDuplicateConstraints] 
[Symmetry] Graph for symmetry has 4'133 nodes and 12'462 arcs.
[Symmetry] Symmetry computation done. time: 0.000736906 dtime: 0.00119605
[SAT presolve] num removable Booleans: 85 / 449
[SAT presolve] num trivial clauses: 0
[SAT presolve] [0s] clauses:2'094 literals:6'123 vars:427 one_side_vars:183 simple_definition:46 singleton_clauses:0
[SAT presolve] [0.000162574s] clauses:2'094 literals:6'123 vars:427 one_side_vars:183 simple_definition:46 singleton_clauses:0
[SAT presolve] [0.000215083s] clauses:2'094 literals:6'123 vars:427 one_side_vars:183 simple_definition:46 singleton_clauses:0
  1.34e-04s  0.00e+00d  [DetectDuplicateConstraintsWithDifferentEnforcements] 
  4.10e-03s  1.67e-03d  [Probe] #probed=1'236 #new_binary_clauses=267 
  2.99e-04s  2.02e-04d  [MaxClique] 
  6.95e-04s  0.00e+00d  [DetectDominanceRelations] 
  2.43e-03s  0.00e+00d  [PresolveToFixPoint] #num_loops=1 #num_dual_strengthening=1 
  8.09e-04s  0.00e+00d  [ProcessAtMostOneAndLinear] 
  1.28e-04s  0.00e+00d  [DetectDuplicateConstraints] 
  7.28e-05s  0.00e+00d  [DetectDuplicateConstraintsWithDifferentEnforcements] 
  7.00e-04s  4.97e-05d  [DetectDominatedLinearConstraints] #relevant_constraints=797 #num_inclusions=264 
  1.02e-04s  0.00e+00d  [DetectDifferentVariables] 
  6.02e-04s  6.82e-05d  [ProcessSetPPC] #relevant_constraints=2'966 #num_inclusions=71 
  2.60e-04s  3.25e-05d  [TransformClausesToExactlyOne] #num_amos=451 #num_clauses=1'672 #num_checked=1'672 
  3.87e-05s  0.00e+00d  [DetectEncodedComplexDomains] 
  3.48e-05s  2.50e-07d  [FindAlmostIdenticalLinearConstraints] #num_tested_pairs=3 
  6.41e-04s  8.94e-04d  [FindBigAtMostOneAndLinearOverlap] 
  9.16e-04s  7.86e-04d  [FindBigVerticalLinearOverlap] 
  2.63e-04s  5.43e-04d  [FindBigHorizontalLinearOverlap] #linears=438 
  3.07e-04s  2.64e-05d  [MergeClauses] #num_collisions=81 #num_merges=81 #num_saved_literals=244 
  7.25e-04s  0.00e+00d  [DetectDominanceRelations] 
  2.43e-03s  0.00e+00d  [PresolveToFixPoint] #num_loops=1 #num_dual_strengthening=1 
  1.66e-05s  0.00e+00d  [MergeNoOverlap] 
  1.56e-05s  0.00e+00d  [MergeNoOverlap2D] 

Presolve summary:
  - 34 affine relations were detected.
  - rule 'TODO dual: only one blocking constraint?' was applied 761 times.
  - rule 'TODO linear inclusion: superset is equality' was applied 232 times.
  - rule 'affine: new relation' was applied 34 times.
  - rule 'at_most_one: removed literals' was applied 49 times.
  - rule 'at_most_one: size one' was applied 47 times.
  - rule 'at_most_one: transformed into max clique' was applied 2 times.
  - rule 'bool_or: always true' was applied 1 time.
  - rule 'bool_or: implications' was applied 53 times.
  - rule 'bool_or: only one literal' was applied 12 times.
  - rule 'bool_or: removed enforcement literal' was applied 557 times.
  - rule 'deductions: 676 stored' was applied 1 time.
  - rule 'duplicate: merged rhs of linear constraint' was applied 22 times.
  - rule 'duplicate: removed constraint' was applied 23 times.
  - rule 'enforcement: false literal' was applied 52 times.
  - rule 'enforcement: true literal' was applied 20 times.
  - rule 'exactly_one: removed literals' was applied 28 times.
  - rule 'exactly_one: satisfied' was applied 13 times.
  - rule 'exactly_one: singleton' was applied 2 times.
  - rule 'exactly_one: size two' was applied 26 times.
  - rule 'exactly_one: x and not(x)' was applied 5 times.
  - rule 'incompatible linear: add implication' was applied 114 times.
  - rule 'linear + amo: empty after processing' was applied 5 times.
  - rule 'linear + amo: extracted enforcement literal' was applied 48 times.
  - rule 'linear + amo: trivial linear constraint' was applied 1 time.
  - rule 'linear inclusion: redundant containing constraint' was applied 3 times.
  - rule 'linear inclusion: redundant included constraint' was applied 5 times.
  - rule 'linear inclusion: sparsify superset' was applied 2 times.
  - rule 'linear matrix: common vertical rectangle' was applied 5 times.
  - rule 'linear1: always true' was applied 2 times.
  - rule 'linear1: x in domain' was applied 36 times.
  - rule 'linear2: convert ax + by != cte to clauses' was applied 257 times.
  - rule 'linear2: convert implied ax + by == cte to clauses' was applied 114 times.
  - rule 'linear2: implied ax + by = cte has only one solution' was applied 7 times.
  - rule 'linear: always true' was applied 416 times.
  - rule 'linear: coefficient strengthening by increasing it' was applied 2 times.
  - rule 'linear: empty' was applied 5 times.
  - rule 'linear: enforcement literal in expression' was applied 4 times.
  - rule 'linear: extracted at most one (max)' was applied 1 time.
  - rule 'linear: fixed or dup variables' was applied 920 times.
  - rule 'linear: negative clause' was applied 1'304 times.
  - rule 'linear: negative reified and' was applied 68 times.
  - rule 'linear: never in domain' was applied 5 times.
  - rule 'linear: positive at most one' was applied 29 times.
  - rule 'linear: reduced variable domains' was applied 6 times.
  - rule 'linear: remapped using affine relations' was applied 29 times.
  - rule 'presolve: 106 unused variables removed.' was applied 1 time.
  - rule 'presolve: iteration' was applied 3 times.
  - rule 'probing: bool_or reduced to implication' was applied 14 times.
  - rule 'probing: simplified clauses' was applied 4 times.
  - rule 'setppc: bool_or in at_most_one' was applied 5 times.
  - rule 'setppc: removed dominated constraints' was applied 77 times.
  - rule 'variables: both boolean and its negation fix the same variable' was applied 2 times.
  - rule 'variables: detect half reified value encoding' was applied 4 times.

Presolved satisfaction model '': (model_fingerprint: 0xbbf08d4630da23fa)
#Variables: 452 (381 primary variables)
  - 449 Booleans in [0,1]
  - 2 in [0,2]
  - 1 in [0,7]
#kAtMostOne: 29 (#literals: 133)
#kBoolAnd: 259 (#enforced: 259) (#literals: 681)
#kBoolAndClauses: 81 (#enforced: 81 #multi: 81) (#literals: 406)
#kBoolOr: 1'510 (#literals: 4'629)
#kExactlyOne: 46 (#literals: 176)
#kLinearN: 797 (#enforced: 106) (#terms: 5'227)
[Symmetry] Graph for symmetry has 3'856 nodes and 12'462 arcs.
[Symmetry] Symmetry computation done. time: 0.000598227 dtime: 0.00117943

Preloading model.
#Model   0.08s var:452/452 constraints:2722/2722

Starting search at 0.08s with 4 workers.
3 full problem subsolvers: [default_lp, max_lp, no_lp]
1 first solution subsolver: [fj]
2 interleaved subsolvers: [feasibility_pump, rins/rens]
2 helper subsolvers: [neighborhood_helper, synchronization_agent]

#Model  54.07s var:451/452 constraints:2721/2722
#Model 122.67s var:450/452 constraints:2719/2722
#Model 351.97s var:449/452 constraints:2717/2722
#Model 410.65s var:448/452 constraints:2696/2722
#Model 497.04s var:447/452 constraints:2678/2722
#Model 532.47s var:446/452 constraints:2662/2722
#Model 533.78s var:445/452 constraints:2641/2722
#Model 534.68s var:444/452 constraints:2626/2722
#Model 541.39s var:443/452 constraints:2604/2722
#Model 541.87s var:442/452 constraints:2586/2722
#Model 545.71s var:440/452 constraints:2551/2722
#Model 547.75s var:410/452 constraints:2161/2722
#Done  547.83s no_lp

Task timing                   n [     min,      max]      avg      dev     time         n [     min,      max]      avg      dev    dtime
        'default_lp':         1 [   9.13m,    9.13m]    9.13m   0.00ns    9.13m         2 [  1.69ms,   11.38m]    5.69m    5.69m   11.38m
  'feasibility_pump':      2939 [861.02us,  99.89ms]   1.34ms   1.84ms    3.93s      2938 [265.81us, 113.74ms] 306.82us   2.09ms 901.42ms
                'fj':      2840 [ 53.76ms, 132.85ms] 103.49ms   7.16ms    4.90m      2840 [ 41.97ms, 100.15ms] 100.00ms   1.09ms    4.73m
            'max_lp':         1 [   9.13m,    9.13m]    9.13m   0.00ns    9.13m         2 [104.15ms,   14.70m]    7.35m    7.35m   14.71m
             'no_lp':         1 [   9.13m,    9.13m]    9.13m   0.00ns    9.13m         2 [  1.46ms,   20.99m]   10.50m   10.50m   20.99m
         'rins/rens':      2939 [  1.65ms, 138.40ms]  84.90ms  31.47ms    4.16m      2938 [270.15us, 100.25ms]  68.16ms  37.34ms    3.34m

Search stats     Bools  Conflicts   Branches  Restarts  BacktrackToRoot  Backtrack   BoolPropag  IntegerPropag
  'default_lp':    449     71'363  4'363'822       389          699'233    954'016   41'033'198     50'456'819
      'max_lp':    449     47'309  5'705'399       273          888'648  1'139'644   52'638'177     69'311'538
       'no_lp':    449  6'459'362  9'558'220    24'304          261'545  6'696'872  507'621'038    133'501'507

SAT formula      Fixed  Equiv  Total  VarLeft  BinaryClauses  PermanentClauses  TemporaryClauses
  'default_lp':     10      2    449      437          1'938            20'646             3'879
      'max_lp':     10      2    449      437          2'132            21'778             4'564
       'no_lp':    230      2    449      217          2'112            33'623             3'048

SAT stats        ClassicMinim  LitRemoved  LitRemovedBinary   LitLearned  LitForgotten   Subsumed
  'default_lp':        61'017     608'368           476'388    1'418'782       582'142     31'150
      'max_lp':        38'225     345'584           265'411      830'894       202'231     20'565
       'no_lp':     5'759'370  90'515'989        50'790'418  140'047'609   108'739'335  1'779'851

Vivification     Clauses  Decisions  LitTrue  Subsumed  LitRemoved  DecisionReused  Conflicts
  'default_lp':  778'542  4'177'226       25    15'999     146'621         256'119      1'730
      'max_lp':  966'986  5'524'596        1    16'439     151'313         286'991      1'708
       'no_lp':  217'452  1'807'356        2    14'220     201'676          57'199      1'692

Clause deletion    at_true  l_and_not(l)  to_binary  sub_conflict  sub_extra  sub_decisions  sub_eager  sub_vivify  sub_probing  sub_inpro  blocked  eliminated  forgotten    promoted  conflicts
    'default_lp':    7'143             0         44        30'661        172            767        489      15'999        7'569     12'959        0           0     21'846     130'892     71'363
        'max_lp':    6'914             0         34        20'371        123            435        194      16'439        7'833     12'093        0           0      8'182      79'552     47'309
         'no_lp':   57'917             6        157     1'742'734     17'063         76'053     37'117      14'220       23'800    113'161        0           0  4'347'084  14'850'959  6'459'362

Lp stats         Component  Iterations  AddedCuts  OPTIMAL  DUAL_F.  DUAL_U.
  'default_lp':          1   8'201'731     26'592   82'432        1   43'159
      'max_lp':          1   3'826'620     28'786   13'317   25'519    9'859

Lp dimension        Final dimension of first component
  'default_lp':    286 rows, 321 columns, 2376 entries
      'max_lp':  1134 rows, 452 columns, 19566 entries

Lp debug         CutPropag  CutEqPropag  Adjust  Overflow      Bad  BadScaling
  'default_lp':          0            2  43'159         0  830'900           0
      'max_lp':          0           10   9'857         0  844'287           0

Lp pool          Constraints  Updates  Simplif  Merged  Shortened  Split  Strengthened      Cuts/Call
  'default_lp':       10'335    7'365    8'948       0      8'955    511             0  26'592/30'350
      'max_lp':       12'818   11'504   15'795       2     15'574  2'399           818  28'786/42'206

Lp Cut            default_lp  max_lp
          CG_FF:         284      71
           CG_K:         157       3
          CG_KL:         142       2
           CG_R:         328      34
         Clique:           -     159
             IB:           7       4
       MIR_1_FF:         123     437
        MIR_1_K:          25      16
       MIR_1_KL:          87      17
        MIR_1_R:         103     173
      MIR_1_RLT:           -   2'954
       MIR_2_FF:          91     251
        MIR_2_K:          21      30
       MIR_2_KL:          48      45
        MIR_2_R:          95     239
       MIR_2_RB:           -       1
       MIR_3_FF:          55      53
        MIR_3_K:           5       3
       MIR_3_KL:          22       9
        MIR_3_R:          59      59
       MIR_4_FF:          24      21
        MIR_4_K:           4       3
       MIR_4_KL:          12       3
        MIR_4_R:          29      59
       MIR_5_FF:           6       5
       MIR_5_KL:           4       -
        MIR_5_R:          21      52
       MIR_6_FF:           2       1
        MIR_6_R:          19      53
   ZERO_HALF_FF:         120     187
    ZERO_HALF_K:          19       4
   ZERO_HALF_KL:          26       -
    ZERO_HALF_R:      24'585  23'785
   ZERO_HALF_RB:           -       2
  ZERO_HALF_RBP:          69      51

LNS stats       Improv/Calls  Closed  Difficulty  TimeLimit
  'rins/rens':     2939/2939     50%    7.81e-01       0.10

LS stats                                    Batches  Restarts/Perturbs    LinMoves   GenMoves  CompoundMoves  Bactracks  WeightUpdates  ScoreComputed
                             'fj_restart':      131                 44   3'775'293          0              0          0      3'320'488      3'438'737
                    'fj_restart_compound':      147                 34           0  1'553'407         93'121    730'067          3'735     26'829'771
                'fj_restart_compound_obj':      104                 43           0  1'063'370         88'599    487'306          2'332     18'860'324
            'fj_restart_compound_perturb':      111                 42           0  1'138'496         84'631    526'851          2'613     20'174'912
        'fj_restart_compound_perturb_obj':      257                 61           0  2'690'063        166'238  1'261'784          6'508     46'821'664
                       'fj_restart_decay':      124                 36   3'751'566          0              0          0        169'090      1'565'663
              'fj_restart_decay_compound':      132                 50           0  1'446'867        246'487    600'077          1'762     23'983'648
          'fj_restart_decay_compound_obj':      109                 47           0  1'171'898        202'437    484'620          1'453     19'802'627
      'fj_restart_decay_compound_perturb':      272                 41           0  3'246'470        548'648  1'348'824          3'551     49'832'879
  'fj_restart_decay_compound_perturb_obj':      165                 46           0  1'871'973        320'774    775'507          2'167     30'051'064
                   'fj_restart_decay_obj':      456                 45  13'883'542          0              0          0        625'858      5'784'020
               'fj_restart_decay_perturb':      258                 49   7'862'549          0              0          0        353'952      3'272'033
           'fj_restart_decay_perturb_obj':      149                 48   4'539'172          0              0          0        204'090      1'883'209
                         'fj_restart_obj':      123                 40   3'291'773          0              0          0      3'203'135      3'725'272
                     'fj_restart_perturb':      138                 43   3'794'174          0              0          0      3'483'985      4'201'639
                 'fj_restart_perturb_obj':      164                 58   4'323'947          0              0          0      4'129'074      5'011'340

Solution repositories    Added  Queried  Synchro
    'alternative_path':      0        0        0
      'best_solutions':      0        0        0
   'fj solution hints':    719        0      719
        'lp solutions':    371    2'939      364
                'pump':      0        0

Improving bounds shared    Num  Sym
            'default_lp':    3    0
                'max_lp':    1    0
                 'no_lp':  176    0

Clauses shared    #Exported  #Imported  #BinaryRead  #BinaryTotal
   'default_lp':      5'118     50'656          789         1'169
       'max_lp':      5'005     50'969          793         1'169
        'no_lp':     50'918      9'339        1'169         1'169

LRAT_status: NA
CpSolverResponse summary:
status: INFEASIBLE
objective: NA
best_bound: NA
integers: 334
booleans: 449
conflicts: 6459362
branches: 9558220
propagations: 507621038
integer_propagations: 133501507
restarts: 24304
lp_iterations: 0
walltime: 547.843
usertime: 547.843
deterministic_time: 3310.03
gap_integral: 0

{
  "board_size": 22,
  "parity_proved": 0,
  "target": 34,
  "child_id": 322,
  "child_count": 2640,
  "partition": "unknown_pair_x_diag_plus_twos_x_diag_minus_twos",
  "build_seconds": 0.06579804420471191,
  "workers": 4,
  "requested_seed": 2026072422,
  "effective_seed": 2026072422,
  "main_diagonal_pair": [
    1,
    4
  ],
  "pair_index": 23,
  "diag_plus_twos": 16,
  "diag_minus_twos": 16,
  "pair_excess": 26,
  "residual_certificate_slack": 86,
  "analytic_minimum_line_defect": 24,
  "analytic_defect_details": {
    "row_costs": {
      "12": 6,
      "13": 3,
      "14": 0,
      "15": 0,
      "16": 0,
      "17": 0
    },
    "column_costs": {
      "12": 6,
      "13": 3,
      "14": 0,
      "15": 0,
      "16": 0,
      "17": 0
    },
    "plus_cost": 24,
    "minus_cost": 0,
    "row_column_minimum": 0
  },
  "maximal_line_constraints": 2455,
  "analytic_infeasible": false,
  "allowed_points": 242,
  "status": "INFEASIBLE",
  "proof_method": "cp_sat_all_lines_with_certificate_profile_cuts",
  "elapsed_seconds": 547.8440356254578,
  "branches": 9558220,
  "conflicts": 6459362
}
